analyze/results_flowersnark/final_miplib_symretope_if_extended_generating_set_cpx_v802__settings_final_nopeek_norelabel_extend_norestarts__0__square37.mps.gz.sol
solution status: optimal solution found
objective value:                                   15
x_1_1_14                                            1 	(obj:1)
x_1_15_8                                            1 	(obj:1)
x_1_23_15                                           1 	(obj:1)
x_9_15_8                                            1 	(obj:1)
x_15_1_12                           0.999999999999992 	(obj:1)
x_15_13_2                                           1 	(obj:1)
x_16_23_1                                           1 	(obj:1)
x_16_24_14                          0.999999999999946 	(obj:1)
x_17_13_11                          0.999999999999982 	(obj:1)
x_27_1_11                           0.999999999999996 	(obj:1)
x_27_12_1                                           1 	(obj:1)
x_28_12_10                          0.999999999999992 	(obj:1)
x_28_22_2                                           1 	(obj:1)
x_30_22_8                                           1 	(obj:1)
x_30_30_8                           0.999999999999946 	(obj:1)
y_15                                                1 	(obj:0)
y_14                                 1.99999999999995 	(obj:0)
y_12                                0.999999999999992 	(obj:0)
y_11                                 1.99999999999998 	(obj:0)
y_10                                0.999999999999992 	(obj:0)
y_8                                  3.99999999999995 	(obj:0)
y_2                                                 2 	(obj:0)
y_1                                                 2 	(obj:0)
