analyze/results_flowersnark/final_miplib_symretope_if_extended_generating_set_cpx_v802__settings_final_nopeek_norelabel_extend_norestarts__0__square37.mps.gz.out
FILENAME:   /home/mcs001/s132664/testsets/IP/miplib2017/square37.mps.gz
SETTINGS:   settings_final_nopeek_norelabel_extend_norestarts
TIMELIMIT:  7200
OUTPUTNAME: final_miplib_symretope_if_extended_generating_set_cpx_v802__settings_final_nopeek_norelabel_extend_norestarts__0__
BINNAME:    bin/sbcs.linux.x86_64.gnu.opt.cpx
BASENAME:   square37.mps.gz
SEED:       0
@01 /home/mcs001/s132664/testsets/IP/miplib2017/square37.mps.gz ===========
@02 square37.mps.gz
@03 1686649326
SCIP version 8.0.2 [precision: 8 byte] [memory: block] [mode: optimized] [LP solver: CPLEX 20.1.0.0] [GitHash: 5f0473c]
Copyright (C) 2002-2022 Konrad-Zuse-Zentrum fuer Informationstechnik Berlin (ZIB)

Symretope propagation methods - (c) Jasper van Doornmalen, Christopher Hojny.
[GitHash: 2fd0484]

reading parameter file <../settings/settings_final_nopeek_norelabel_extend_norestarts.set> ...

Changed settings:
limits/time = 7200
limits/restarts = 0
misc/usesymmetry = 1
constraints/orbisack/sepafreq = -1
constraints/symresack/sepafreq = -1
propagating/symmetry/addsymresacks = TRUE
propagating/symmetry/detectsubgroups = FALSE
propagating/symmetry/relabelsymretopes = 0
propagating/symmetry/extendgenerators = TRUE
propagating/symmetry/ofsymcomptiming = 0
constraints/symretope/sepafreq = -1
constraints/symretope/peek = FALSE


solving problem ...

original problem has 49320 variables (49284 bin, 36 int, 0 impl, 0 cont) and 33150 constraints
presolving:
(round 1, fast)       31710 del vars, 31710 del conss, 0 add conss, 31746 chg bounds, 0 chg sides, 0 chg coeffs, 0 upgd conss, 0 impls, 1369 clqs
(round 2, exhaustive) 31710 del vars, 31710 del conss, 0 add conss, 31746 chg bounds, 0 chg sides, 0 chg coeffs, 1369 upgd conss, 0 impls, 1369 clqs
(round 3, exhaustive) 31710 del vars, 31734 del conss, 0 add conss, 31746 chg bounds, 24 chg sides, 0 chg coeffs, 1369 upgd conss, 0 impls, 1369 clqs
   (38.0s) probing: 1000/17574 (5.7%) - 0 fixings, 0 aggregations, 26364 implications, 0 bound changes
   (38.1s) probing: 1001/17574 (5.7%) - 0 fixings, 0 aggregations, 26395 implications, 0 bound changes
   (38.1s) probing aborted: 1000/1000 successive useless probings
   (40.3s) symmetry computation started: requiring (bin +, int +, cont +), (fixed: bin -, int -, cont -)
   (42.5s) symmetry computation finished: 3 generators found (max: 1500, log10 of symmetry group size: 0.9)
(round 4, exhaustive) 31710 del vars, 31734 del conss, 6 add conss, 31746 chg bounds, 24 chg sides, 0 chg coeffs, 1369 upgd conss, 26280 impls, 1484 clqs
presolving (5 rounds: 5 fast, 4 medium, 4 exhaustive):
 31710 deleted vars, 31734 deleted constraints, 6 added constraints, 31746 tightened bounds, 0 added holes, 24 changed sides, 0 changed coefficients
 26280 implications, 1484 cliques
presolved problem has 17610 variables (17574 bin, 36 int, 0 impl, 0 cont) and 1422 constraints
   1369 constraints of type <setppc>
     47 constraints of type <linear>
      5 constraints of type <orbisack>
      1 constraints of type <symretope>
transformed objective value is always integral (scale: 1)
Presolving Time: 40.43

 time | node  | left  |LP iter|LP it/n|mem/heur|mdpt |vars |cons |rows |cuts |sepa|confs|strbr|  dualbound   | primalbound  |  gap   | compl. 
p44.7s|     1 |     0 |   710 |     - |  clique|   0 |  17k|1422 |1424 |   0 |  0 |   0 |   0 | 4.000000e+00 | 2.800000e+01 | 600.00%| unknown
  101s|     1 |     0 |  4804 |     - |  3565M |   0 |  17k|1445 |1424 |   0 |  0 |  26 |   0 | 8.666667e+00 | 2.800000e+01 | 223.08%| unknown
  101s|     1 |     0 |  4804 |     - |  3567M |   0 |  17k|1445 |1424 |   0 |  0 |  26 |   0 | 8.666667e+00 | 2.800000e+01 | 223.08%| unknown
  372s|     1 |     2 | 22630 |     - |  3574M |   0 |  17k|1444 |1424 |   0 |  2 |  30 |  28 | 8.787852e+00 | 2.800000e+01 | 218.62%| unknown
* 760s|     8 |     7 | 39811 |5102.4 |strongbr|   7 |  17k|1434 |1418 |   0 |  1 |  30 | 153 | 8.856995e+00 | 1.900000e+01 | 114.52%| unknown
* 815s|    31 |    10 | 62623 |1951.0 |    LP  |  15 |  17k|1434 |1418 |   0 |  2 |  30 | 172 | 8.856995e+00 | 1.700000e+01 |  91.94%|   3.67%
* 825s|    40 |    13 | 71931 |1739.4 |    LP  |  15 |  17k|1434 |1418 |   0 |  2 |  30 | 172 | 8.856995e+00 | 1.600000e+01 |  80.65%|   4.36%
 1171s|   100 |    53 |251288 |2496.9 |  3600M |  23 |  17k|1470 |1418 |   0 |  2 |  91 | 263 | 9.059719e+00 | 1.600000e+01 |  76.61%|  11.30%
*1172s|   101 |    43 |252659 |2485.7 |    LP  |  24 |  17k|1451 |1418 |   0 |  2 |  91 | 263 | 9.059719e+00 | 1.500000e+01 |  65.57%|  14.49%
 1555s|   200 |    64 |418192 |2080.9 |  3627M |  42 |  17k|1523 |1418 |   0 |  2 | 211 | 365 | 1.050000e+01 | 1.500000e+01 |  42.86%|  27.05%
 1747s|   300 |    68 |562772 |1868.5 |  3647M |  53 |  17k|1564 |1418 |   0 |  0 | 268 | 437 | 1.116652e+01 | 1.500000e+01 |  34.33%|  32.16%
 1886s|   400 |    74 |673606 |1678.0 |  3650M |  73 |  17k|1564 |1418 |   0 |  4 | 287 | 509 | 1.131911e+01 | 1.500000e+01 |  32.52%|  33.29%
 1989s|   500 |    74 |771790 |1538.5 |  3655M |  79 |  17k|1580 |1418 |   0 |  0 | 316 | 555 | 1.135951e+01 | 1.500000e+01 |  32.05%|  35.48%
 2109s|   600 |    74 |858829 |1426.9 |  3666M |  87 |  17k|1603 |1418 |   0 |  2 | 381 | 622 | 1.161564e+01 | 1.500000e+01 |  29.14%|  41.91%
 2229s|   700 |    66 |955428 |1361.0 |  3676M |  87 |  17k|1660 |   0 |   0 |  0 | 483 | 691 | 1.181818e+01 | 1.500000e+01 |  26.92%|  47.14%
 time | node  | left  |LP iter|LP it/n|mem/heur|mdpt |vars |cons |rows |cuts |sepa|confs|strbr|  dualbound   | primalbound  |  gap   | compl. 
 2338s|   800 |    60 |  1037k|1293.8 |  3684M |  96 |  17k|1711 |1418 |   1 |  0 | 633 | 757 | 1.238946e+01 | 1.500000e+01 |  21.07%|  53.60%
 2405s|   900 |    48 |  1108k|1228.0 |  3696M | 108 |  17k|1731 |1418 |   1 |  4 | 712 | 816 | 1.243373e+01 | 1.500000e+01 |  20.64%|  69.09%
 2479s|  1000 |    33 |  1178k|1175.9 |  3714M | 117 |  17k|1785 |1418 |   1 |  2 | 834 | 886 | 1.277778e+01 | 1.500000e+01 |  17.39%|  81.26%

SCIP Status        : problem is solved [optimal solution found]
Solving Time (sec) : 2529.48
Solving Nodes      : 1083
Primal Bound       : +1.50000000000000e+01 (5 solutions)
Dual Bound         : +1.50000000000000e+01
Gap                : 0.00 %
SCIP Status        : problem is solved [optimal solution found]
Total Time         :    2534.78
  solving          :    2529.48
  presolving       :      40.43 (included in solving)
  reading          :       5.31
  copying          :       3.00 (13 #copies) (minimal 0.22, maximal 0.25, average 0.23)
Original Problem   :
  Problem name     : square37
  Variables        : 49320 (49284 binary, 36 integer, 0 implicit integer, 0 continuous)
  Constraints      : 33150 initial, 33150 maximal
  Objective        : minimize, 49284 non-zeros (abs.min = 1, abs.max = 1)
Presolved Problem  :
  Problem name     : t_square37
  Variables        : 17610 (17574 binary, 36 integer, 0 implicit integer, 0 continuous)
  Constraints      : 1422 initial, 1814 maximal
  Objective        : minimize, 17430 non-zeros (abs.min = 1, abs.max = 1)
  Nonzeros         : 2761039 constraint, 2254486 clique table
Presolvers         :   ExecTime  SetupTime  Calls  FixedVars   AggrVars   ChgTypes  ChgBounds   AddHoles    DelCons    AddCons   ChgSides   ChgCoefs
  boundshift       :       0.00       0.00      0          0          0          0          0          0          0          0          0          0
  convertinttobin  :       0.00       0.00      0          0          0          0          0          0          0          0          0          0
  domcol           :       0.44       0.00      2          0          0          0          0          0          0          0          0          0
  dualagg          :       0.00       0.00      0          0          0          0          0          0          0          0          0          0
  dualcomp         :       0.00       0.00      0          0          0          0          0          0          0          0          0          0
  dualinfer        :       0.00       0.00      0          0          0          0          0          0          0          0          0          0
  dualsparsify     :       2.18       0.00      1          0          0          0          0          0          0          0          0          0
  gateextraction   :       0.00       0.00      0          0          0          0          0          0          0          0          0          0
  implics          :       0.00       0.00      4          0          0          0          0          0          0          0          0          0
  inttobinary      :       0.00       0.00      5          0          0          0          0          0          0          0          0          0
  qpkktref         :       0.00       0.00      0          0          0          0          0          0          0          0          0          0
  redvub           :       0.00       0.00      0          0          0          0          0          0          0          0          0          0
  sparsify         :       1.18       0.00      1          0          0          0          0          0          0          0          0          0
  stuffing         :       0.00       0.00      0          0          0          0          0          0          0          0          0          0
  trivial          :       0.01       0.00      5          0          0          0          0          0          0          0          0          0
  tworowbnd        :       0.00       0.00      0          0          0          0          0          0          0          0          0          0
  dualfix          :       0.01       0.00      5          0          0          0          0          0          0          0          0          0
  genvbounds       :       0.00       0.00      0          0          0          0          0          0          0          0          0          0
  probing          :      19.85       0.00      1          0          0          0          0          0          0          0          0          0
  pseudoobj        :       0.00       0.00      0          0          0          0          0          0          0          0          0          0
  symmetry         :       2.26       0.00      1          0          0          0          0          0          0          6          0          0
  vbounds          :       0.04       0.00      1          0          0          0          0          0          0          0          0          0
  knapsack         :       0.00       0.00      0          0          0          0          0          0          0          0          0          0
  setppc           :       1.18       0.02      9          0          0          0          0          0          0          0          0          0
  linear           :      12.08       2.10      9      31710          0          0      31746          0      31734          0         24          0
  orbisack         :       0.00       0.00      1          0          0          0          0          0          0          0          0          0
  symretope        :       0.00       0.00      1          0          0          0          0          0          0          0          0          0
  logicor          :       0.00       0.00      0          0          0          0          0          0          0          0          0          0
  bounddisjunction :       0.00       0.00      0          0          0          0          0          0          0          0          0          0
  benders          :       0.00       0.00      0          0          0          0          0          0          0          0          0          0
  components       :       0.46       0.00      1          0          0          0          0          0          0          0          0          0
  root node        :          -          -      -       1267          -          -       1311          -          -          -          -          -
Constraints        :     Number  MaxNumber  #Separate #Propagate    #EnfoLP    #EnfoRelax  #EnfoPS    #Check   #ResProp    Cutoffs    DomReds       Cuts    Applied      Conss   Children
  benderslp        :          0          0          0          0        647          0          0         36          0          0          0          0          0          0          0
  integral         :          0          0          0          0        647          0          0         36          0          0        285          0          0        686       1098
  knapsack         :          0+         3          0       1396          0          0          0          0          1          0          7          0          0          0          0
  setppc           :       1369+      1389          1      13913          3          0          0         30     316311         60     692364          0          0          0          0
  linear           :         47         47          1      13853          3          0          0          2      46011         54      22650          0          0          0          0
  orbisack         :          5          5          0        162          0          0          0          2        552         20        741          0          0          0          0
  symretope        :          1          1          0        623          0          0          0          2         75          0         49          0          0          0          0
  logicor          :          0+        43          1       1724          0          0          0          0        179         18        114          0          0          0          0
  bounddisjunction :          0+       327          0       1778          0          0          0          0        162         21         18          0          0          0          0
  benders          :          0          0          0          0          3          0          0          3          0          0          0          0          0          0          0
  countsols        :          0          0          0          0          3          0          0          3          0          0          0          0          0          0          0
  components       :          0          0          0          0          0          0          0          0          0          0          0          0          0          0          0
Constraint Timings :  TotalTime  SetupTime   Separate  Propagate     EnfoLP     EnfoPS     EnfoRelax   Check    ResProp    SB-Prop
  benderslp        :       0.00       0.00       0.00       0.00       0.00       0.00       0.00       0.00       0.00       0.00
  integral         :    1046.46       0.00       0.00       0.00    1046.44       0.00       0.00       0.02       0.00       0.00
  knapsack         :       0.00       0.00       0.00       0.00       0.00       0.00       0.00       0.00       0.00       0.00
  setppc           :      13.03       0.02       0.21       4.71       0.00       0.00       0.00       0.10       1.15       6.83
  linear           :       6.07       2.10       0.01       3.14       0.00       0.00       0.00       0.00       0.31       0.51
  orbisack         :       0.06       0.00       0.00       0.05       0.00       0.00       0.00       0.00       0.00       0.00
  symretope        :       0.03       0.00       0.00       0.02       0.00       0.00       0.00       0.00       0.00       0.01
  logicor          :       0.25       0.00       0.00       0.22       0.00       0.00       0.00       0.00       0.01       0.02
  bounddisjunction :       0.30       0.00       0.00       0.09       0.00       0.00       0.00       0.00       0.03       0.17
  benders          :       0.00       0.00       0.00       0.00       0.00       0.00       0.00       0.00       0.00       0.00
  countsols        :       0.00       0.00       0.00       0.00       0.00       0.00       0.00       0.00       0.00       0.00
  components       :       0.00       0.00       0.00       0.00       0.00       0.00       0.00       0.00       0.00       0.00
Propagators        : #Propagate   #ResProp    Cutoffs    DomReds
  dualfix          :          4          0          0          0
  genvbounds       :          0          0          0          0
  nlobbt           :          0          0          0          0
  obbt             :          0          0          0          0
  probing          :          0          0          0          0
  pseudoobj        :       4536          0          0          0
  redcost          :       2524          0          0     645371
  rootredcost      :          5          0          0        553
  symmetry         :          0          0          0          0
  vbounds          :       5472          0          0          0
Propagator Timings :  TotalTime  SetupTime   Presolve  Propagate    ResProp    SB-Prop
  dualfix          :       0.01       0.00       0.01       0.00       0.00       0.00
  genvbounds       :       0.01       0.00       0.00       0.00       0.00       0.00
  nlobbt           :       0.00       0.00       0.00       0.00       0.00       0.00
  obbt             :       0.00       0.00       0.00       0.00       0.00       0.00
  probing          :      19.85       0.00      19.85       0.00       0.00       0.00
  pseudoobj        :       0.11       0.00       0.00       0.11       0.00       0.00
  redcost          :       3.85       0.00       0.00       3.85       0.00       0.00
  rootredcost      :       0.11       0.00       0.00       0.11       0.00       0.00
  symmetry         :       2.26       0.00       2.26       0.00       0.00       0.00
  vbounds          :       0.30       0.00       0.04       0.25       0.00       0.00
Orbital fixing     :
  vars fixed to 0  :          0
  vars fixed to 1  :          0
Conflict Analysis  :       Time      Calls    Success    DomReds  Conflicts   Literals    Reconvs ReconvLits   Dualrays   Nonzeros   LP Iters   (pool size: [10000,10000])
  propagation      :       0.89        107         82          -        750     2406.4          3     2318.3          -          -          -
  infeasible LP    :       1.83         31          3          -         29      675.3          1     1861.0          3      188.0          0
  bound exceed. LP :      98.52        216        224          -       1427     1686.6          3      781.7         31        1.0       3510
  strong branching :       0.00          0          0          -          0        0.0          0        0.0          -          -          0
  pseudo solution  :       0.00          0          0          -          0        0.0          0        0.0          -          -          -
  applied globally :      71.57          -          -         31        895      842.9          -          -         34          -          -
  applied locally  :          -          -          -          0         36     3833.9          -          -          0          -          -
Separators         :   ExecTime  SetupTime      Calls  RootCalls    Cutoffs    DomReds  FoundCuts ViaPoolAdd  DirectAdd    Applied ViaPoolApp  DirectApp      Conss
  cut pool         :       0.00          -         23          0          -          -          1          1          -          -          -          -          -    (maximal pool size:          1)
  aggregation      :       1.57       0.00         59          1          0          0          0          0          0          0          0          0          0
  > cmir           :          -          -          -          -          -          -          -          0          0          0          0          0          -
  > flowcover      :          -          -          -          -          -          -          -          0          0          0          0          0          -
  > knapsackcover  :          -          -          -          -          -          -          -          0          0          0          0          0          -
  cgmip            :       0.00       0.00          0          0          0          0          0          0          0          0          0          0          0
  clique           :      21.14       0.00          1          1          0          0          0          0          0          0          0          0          0
  closecuts        :       0.00       0.00          0          0          0          0          0          0          0          0          0          0          0
  convexproj       :       0.00       0.00          0          0          0          0          0          0          0          0          0          0          0
  disjunctive      :       0.00       0.00          0          0          0          0          0          0          0          0          0          0          0
  eccuts           :       0.00       0.00          0          0          0          0          0          0          0          0          0          0          0
  gauge            :       0.00       0.00          0          0          0          0          0          0          0          0          0          0          0
  gomory           :       4.66       0.00         58          1          0          0          0          0          0          0          0          0          0
  > gomorymi       :          -          -          -          -          -          -          -          0          0          0          0          0          -
  > strongcg       :          -          -          -          -          -          -          -          0          0          0          0          0          -
  impliedbounds    :       0.17       0.00         59          1          0          0          1          1          0          1          1          0          0
  interminor       :       0.00       0.00          0          0          0          0          0          0          0          0          0          0          0
  intobj           :       0.00       0.00          0          0          0          0          0          0          0          0          0          0          0
  mcf              :       0.02       0.00          1          1          0          0          0          0          0          0          0          0          0
  minor            :       0.00       0.00          0          0          0          0          0          0          0          0          0          0          0
  mixing           :       0.00       0.00         60          1          0          0          0          0          0          0          0          0          0
  oddcycle         :       0.00       0.00          0          0          0          0          0          0          0          0          0          0          0
  rapidlearning    :       0.01       0.00          0          0          0          0          0          0          0          0          0          0          0
  rlt              :       0.00       0.00          1          1          0          0          0          0          0          0          0          0          0
  zerohalf         :       0.54       0.00         58          1          0          0          0          0          0          0          0          0          0
Cutselectors       :   ExecTime  SetupTime      Calls  RootCalls   Selected     Forced   Filtered  RootSelec   RootForc   RootFilt 
  hybrid           :       0.00       0.00          1          0          1          0          0          0          0          0
Pricers            :   ExecTime  SetupTime      Calls       Vars
  problem variables:       0.00          -          0          0
Branching Rules    :   ExecTime  SetupTime   BranchLP  BranchExt   BranchPS    Cutoffs    DomReds       Cuts      Conss   Children
  allfullstrong    :       0.00       0.00          0          0          0          0          0          0          0          0
  cloud            :       0.00       0.00          0          0          0          0          0          0          0          0
  distribution     :       0.00       0.00          0          0          0          0          0          0          0          0
  fullstrong       :       0.00       0.00          0          0          0          0          0          0          0          0
  inference        :       0.00       0.00          0          0          0          0          0          0          0          0
  leastinf         :       0.00       0.00          0          0          0          0          0          0          0          0
  lookahead        :       0.00       0.00          0          0          0          0          0          0          0          0
  mostinf          :       0.00       0.00          0          0          0          0          0          0          0          0
  multaggr         :       0.00       0.00          0          0          0          0          0          0          0          0
  nodereopt        :       0.00       0.00          0          0          0          0          0          0          0          0
  pscost           :       0.00       0.00          0          0          0          0          0          0          0          0
  random           :       0.00       0.00          0          0          0          0          0          0          0          0
  relpscost        :    1046.44       0.00        644          0          0          0        285          0        736       1098
  vanillafullstrong:       0.00       0.00          0          0          0          0          0          0          0          0
Primal Heuristics  :   ExecTime  SetupTime      Calls      Found       Best
  LP solutions     :       0.01          -          -          3          3
  relax solutions  :       0.00          -          -          0          0
  pseudo solutions :       0.00          -          -          0          0
  strong branching :       0.02          -          -          1          1
  actconsdiving    :       0.00       0.00          0          0          0
  adaptivediving   :       2.62       0.00          2          0          0
  alns             :       3.05       0.00          5          0          0
  bound            :       0.00       0.00          0          0          0
  clique           :       1.18       0.00          1          1          1
  coefdiving       :       0.00       0.00          0          0          0
  completesol      :       0.00       0.00          0          0          0
  conflictdiving   :      14.20       0.00          2          0          0
  crossover        :       0.59       0.00          2          0          0
  dins             :       0.00       0.00          0          0          0
  distributiondivin:       1.26       0.00          1          0          0
  dps              :       0.00       0.00          0          0          0
  dualval          :       0.00       0.00          0          0          0
  farkasdiving     :       0.00       0.00          0          0          0
  feaspump         :     119.30       0.00          1          0          0
  fixandinfer      :       0.00       0.00          0          0          0
  fracdiving       :       0.59       0.00          1          0          0
  gins             :       0.41       0.00          0          0          0
  guideddiving     :       2.38       0.00          1          0          0
  indicator        :       0.00       0.00          0          0          0
  intdiving        :       0.00       0.00          0          0          0
  intshifting      :       0.00       0.00          0          0          0
  linesearchdiving :       0.16       0.00          1          0          0
  localbranching   :       0.00       0.00          0          0          0
  locks            :       0.33       0.00          1          0          0
  lpface           :       0.00       0.00          0          0          0
  mpec             :       0.00       0.00          0          0          0
  multistart       :       0.00       0.00          0          0          0
  mutation         :       0.00       0.00          0          0          0
  nlpdiving        :       0.00       0.00          0          0          0
  objpscostdiving  :      26.32       0.00          1          0          0
  octane           :       0.00       0.00          0          0          0
  ofins            :       0.00       0.00          0          0          0
  oneopt           :       0.28       0.00          5          0          0
  padm             :       0.00       0.00          0          0          0
  proximity        :       0.00       0.00          0          0          0
  pscostdiving     :       1.17       0.00          1          0          0
  randrounding     :       0.26       0.00         25          0          0
  rens             :       0.34       0.00          1          0          0
  reoptsols        :       0.00       0.00          0          0          0
  repair           :       0.00       0.00          0          0          0
  rins             :       1.90       0.00          5          0          0
  rootsoldiving    :       5.19       0.00          1          0          0
  rounding         :       2.51       0.00        312          0          0
  shiftandpropagate:       0.00       0.00          0          0          0
  shifting         :       3.66       0.00         59          0          0
  simplerounding   :       0.00       0.00          0          0          0
  subnlp           :       0.00       0.00          0          0          0
  trivial          :       0.09       0.00          2          0          0
  trivialnegation  :       0.00       0.00          0          0          0
  trustregion      :       0.00       0.00          0          0          0
  trysol           :       0.00       0.00          0          0          0
  twoopt           :       0.00       0.00          0          0          0
  undercover       :       0.00       0.00          0          0          0
  vbounds          :      38.13       0.00          1          0          0
  veclendiving     :       0.32       0.00          1          0          0
  zeroobj          :       0.00       0.00          0          0          0
  zirounding       :       0.13       0.00        549          0          0
  other solutions  :          -          -          -          0          -
LP                 :       Time      Calls Iterations  Iter/call   Iter/sec  Time-0-It Calls-0-It    ItLimit
  primal LP        :       9.93          2          0       0.00       0.00       9.93          2
  dual LP          :    1133.42       2358    1165907    1035.44    1028.66      11.46       1232
  lex dual LP      :       0.00          0          0       0.00          -
  barrier LP       :       0.00          0          0       0.00          -       0.00          0
  resolve instable :       0.00          0          0       0.00          -
  diving/probing LP:     166.48         41      56737    1383.83     340.81
  strong branching :     933.13        923     703684     762.39     754.11          -          -       1209
    (at root node) :          -         28      23281     831.46          -
  conflict analysis:      25.38        351       3510      10.00     138.28
B&B Tree           :
  number of runs   :          1
  nodes            :       1083 (549 internal, 534 leaves)
  feasible leaves  :          3
  infeas. leaves   :         63
  objective leaves :        468
  nodes (total)    :       1083 (549 internal, 534 leaves)
  nodes left       :          0
  max depth        :        117
  max depth (total):        117
  backtracks       :        170 (15.7%)
  early backtracks :          0 (0.0%)
  nodes exc. ref.  :          0 (0.0%)
  delayed cutoffs  :          1
  repropagations   :        374 (5435 domain reductions, 1 cutoffs)
  avg switch length:       6.28
  switching time   :      16.03
Root Node          :
  First LP value   : +8.66666666666670e+00
  First LP Iters   :       4094 (232.71 Iter/sec)
  First LP Time    :      17.59
  Final Dual Bound : +8.78785204697625e+00
  Final Root Iters :       4094
  Root LP Estimate : +1.25537787857021e+01
Solution           :
  Solutions found  :          5 (5 improvements)
  First Solution   : +2.80000000000000e+01   (in run 1, after 1 nodes, 44.72 seconds, depth 4, found by <clique>)
  Gap First Sol.   :     600.00 %
  Gap Last Sol.    :      65.57 %
  Primal Bound     : +1.50000000000000e+01   (in run 1, after 101 nodes, 1171.80 seconds, depth 24, found by <relaxation>)
  Dual Bound       : +1.50000000000000e+01
  Gap              :       0.00 %
Integrals          :      Total       Avg%
  primal-dual      :  108140.06      42.75
  primal-ref       :          -          - (not evaluated)
  dual-ref         :          -          - (not evaluated)
written solution information to file <results/final_miplib_symretope_if_extended_generating_set_cpx_v802__settings_final_nopeek_norelabel_extend_norestarts__0__square37.mps.gz.sol>
@04 1686651868
